p edge 268 743
e 1 7
e 1 13
e 1 15
e 1 18
e 1 19
e 1 28
e 1 37
e 1 55
e 1 64
e 1 69
e 1 98
e 1 105
e 1 117
e 1 153
e 2 3
e 2 81
e 2 86
e 2 88
e 2 93
e 2 105
e 2 111
e 2 128
e 2 187
e 2 231
e 3 4
e 3 6
e 3 17
e 3 37
e 3 40
e 3 43
e 3 46
e 3 48
e 3 63
e 3 73
e 3 135
e 3 163
e 3 170
e 3 174
e 3 187
e 4 6
e 4 17
e 4 27
e 4 28
e 4 34
e 4 36
e 4 46
e 4 48
e 4 120
e 4 174
e 4 194
e 5 14
e 5 16
e 5 18
e 5 51
e 5 52
e 5 54
e 5 66
e 5 73
e 5 92
e 5 99
e 5 110
e 5 114
e 5 206
e 6 10
e 6 12
e 6 13
e 6 23
e 6 29
e 6 34
e 6 36
e 6 103
e 6 163
e 6 224
e 6 248
e 7 8
e 7 12
e 7 15
e 7 67
e 7 70
e 7 82
e 7 106
e 7 126
e 7 132
e 7 148
e 8 12
e 8 14
e 8 15
e 8 22
e 8 28
e 8 41
e 8 42
e 8 49
e 8 61
e 8 67
e 8 71
e 8 109
e 8 120
e 8 153
e 8 184
e 8 202
e 9 10
e 9 16
e 9 21
e 9 52
e 9 53
e 9 54
e 9 62
e 9 65
e 9 79
e 9 89
e 9 104
e 9 108
e 9 163
e 9 167
e 9 183
e 10 13
e 10 19
e 10 29
e 10 34
e 10 36
e 10 48
e 10 112
e 10 163
e 10 248
e 11 14
e 11 31
e 11 35
e 11 43
e 11 133
e 12 15
e 12 20
e 12 22
e 12 30
e 12 42
e 12 59
e 12 67
e 12 71
e 12 184
e 12 260
e 13 23
e 13 24
e 13 29
e 13 33
e 13 34
e 13 36
e 13 112
e 14 18
e 14 22
e 14 35
e 14 41
e 14 67
e 14 153
e 14 181
e 15 18
e 15 39
e 15 40
e 15 58
e 15 67
e 15 87
e 16 47
e 16 51
e 16 53
e 16 54
e 16 62
e 16 66
e 16 79
e 16 89
e 16 99
e 16 108
e 16 212
e 17 20
e 17 22
e 17 42
e 17 46
e 17 48
e 17 50
e 17 78
e 17 96
e 17 174
e 17 175
e 17 213
e 18 23
e 18 28
e 18 39
e 18 44
e 18 85
e 18 98
e 18 152
e 18 172
e 18 178
e 18 179
e 18 208
e 19 29
e 19 47
e 20 22
e 20 30
e 20 36
e 20 42
e 20 49
e 20 59
e 20 70
e 20 89
e 20 104
e 20 133
e 21 65
e 21 165
e 21 167
e 21 220
e 21 238
e 22 41
e 22 42
e 22 70
e 22 71
e 22 104
e 22 133
e 22 146
e 22 181
e 22 184
e 22 213
e 23 29
e 23 34
e 23 43
e 23 44
e 23 51
e 23 59
e 23 82
e 23 111
e 23 148
e 23 152
e 23 172
e 24 33
e 24 36
e 24 81
e 24 90
e 24 97
e 24 115
e 24 150
e 25 38
e 25 56
e 25 74
e 25 78
e 25 94
e 25 104
e 25 116
e 25 124
e 25 125
e 25 136
e 25 148
e 25 155
e 25 168
e 25 239
e 26 31
e 26 50
e 26 62
e 26 80
e 26 85
e 26 95
e 26 114
e 26 174
e 26 185
e 27 34
e 27 57
e 27 69
e 27 71
e 27 90
e 27 147
e 27 190
e 27 195
e 27 209
e 28 31
e 28 83
e 28 98
e 28 130
e 28 208
e 29 34
e 29 37
e 29 102
e 29 113
e 29 115
e 29 123
e 29 159
e 29 169
e 30 50
e 30 58
e 30 74
e 30 98
e 31 43
e 31 94
e 31 95
e 31 130
e 31 185
e 32 68
e 32 71
e 32 83
e 32 91
e 32 97
e 32 98
e 32 133
e 32 151
e 32 234
e 33 36
e 33 121
e 34 36
e 34 43
e 34 48
e 34 50
e 35 72
e 35 126
e 35 129
e 35 132
e 35 176
e 35 205
e 35 237
e 36 48
e 36 53
e 36 56
e 36 59
e 37 73
e 37 76
e 37 102
e 37 105
e 37 135
e 37 170
e 38 45
e 38 74
e 38 94
e 38 95
e 38 178
e 38 179
e 38 236
e 39 69
e 39 149
e 39 215
e 39 219
e 40 46
e 40 58
e 40 63
e 40 87
e 40 176
e 40 201
e 41 64
e 41 84
e 41 103
e 41 181
e 42 49
e 42 71
e 42 78
e 42 89
e 42 96
e 42 106
e 42 111
e 42 127
e 42 184
e 43 68
e 43 96
e 44 82
e 44 86
e 44 108
e 44 124
e 44 147
e 44 148
e 44 152
e 44 172
e 44 228
e 45 100
e 45 119
e 45 164
e 45 186
e 45 189
e 45 263
e 45 264
e 46 48
e 46 63
e 46 79
e 46 84
e 46 174
e 46 243
e 46 244
e 47 53
e 47 65
e 47 66
e 47 89
e 47 102
e 47 128
e 47 158
e 47 167
e 47 188
e 47 203
e 47 212
e 48 53
e 48 120
e 48 174
e 48 251
e 49 89
e 49 109
e 49 201
e 50 62
e 50 80
e 50 85
e 51 59
e 51 87
e 51 111
e 51 132
e 51 171
e 52 104
e 52 114
e 52 130
e 52 136
e 52 206
e 53 54
e 53 62
e 53 79
e 53 89
e 53 108
e 53 140
e 53 180
e 53 212
e 54 68
e 54 79
e 54 92
e 54 99
e 54 108
e 54 110
e 54 152
e 54 160
e 55 117
e 55 134
e 55 157
e 55 158
e 56 74
e 56 78
e 56 86
e 56 124
e 56 125
e 57 137
e 57 190
e 57 209
e 57 217
e 57 245
e 58 67
e 58 74
e 58 78
e 58 87
e 58 109
e 58 145
e 58 227
e 59 101
e 60 77
e 60 112
e 60 114
e 60 131
e 60 232
e 60 246
e 61 106
e 61 120
e 61 202
e 62 80
e 62 85
e 62 161
e 62 207
e 64 105
e 64 123
e 65 107
e 65 117
e 65 128
e 65 167
e 65 199
e 66 73
e 66 102
e 66 188
e 67 109
e 67 160
e 67 229
e 67 230
e 68 83
e 68 96
e 68 98
e 68 184
e 69 90
e 69 215
e 70 92
e 70 104
e 70 133
e 71 91
e 71 147
e 71 184
e 71 191
e 71 195
e 71 259
e 72 93
e 72 118
e 72 176
e 72 205
e 73 107
e 73 113
e 73 135
e 73 170
e 74 94
e 74 124
e 74 155
e 75 110
e 75 124
e 75 144
e 75 261
e 76 80
e 76 103
e 76 177
e 76 180
e 77 157
e 77 247
e 78 82
e 78 96
e 78 125
e 78 137
e 78 145
e 78 227
e 78 240
e 78 241
e 79 89
e 79 108
e 79 183
e 80 85
e 80 103
e 81 90
e 81 97
e 81 102
e 81 105
e 81 119
e 81 144
e 81 233
e 82 137
e 82 148
e 82 214
e 82 240
e 82 241
e 83 98
e 84 103
e 84 128
e 84 161
e 84 243
e 84 244
e 85 159
e 85 178
e 85 179
e 86 124
e 86 231
e 87 88
e 87 93
e 87 132
e 87 168
e 87 171
e 88 93
e 88 111
e 88 183
e 88 242
e 89 99
e 89 183
e 89 212
e 90 139
e 90 221
e 90 255
e 91 133
e 91 191
e 91 234
e 91 259
e 92 99
e 92 101
e 92 108
e 92 110
e 93 111
e 93 127
e 94 95
e 94 138
e 94 143
e 94 185
e 94 216
e 95 185
e 96 184
e 97 150
e 97 233
e 99 101
e 99 108
e 99 110
e 100 186
e 101 108
e 102 119
e 102 144
e 102 188
e 104 133
e 104 148
e 104 168
e 104 239
e 105 123
e 106 111
e 107 113
e 107 117
e 107 121
e 107 166
e 108 228
e 110 124
e 110 125
e 110 146
e 112 114
e 112 118
e 112 123
e 112 166
e 112 232
e 113 159
e 113 169
e 114 232
e 115 211
e 116 119
e 116 136
e 116 155
e 116 156
e 116 164
e 116 189
e 116 204
e 116 266
e 117 157
e 118 123
e 118 166
e 118 177
e 119 144
e 119 189
e 120 202
e 121 127
e 121 162
e 121 166
e 122 135
e 122 138
e 122 258
e 123 166
e 125 146
e 126 132
e 127 162
e 128 161
e 129 141
e 129 193
e 129 223
e 130 136
e 130 156
e 130 164
e 131 188
e 131 246
e 132 171
e 133 234
e 134 149
e 134 172
e 135 170
e 135 265
e 136 155
e 136 156
e 136 164
e 137 190
e 137 197
e 137 235
e 137 240
e 137 241
e 137 245
e 138 143
e 138 216
e 139 150
e 139 198
e 139 200
e 139 255
e 140 180
e 140 249
e 140 250
e 140 252
e 141 173
e 141 193
e 141 223
e 142 170
e 142 182
e 142 256
e 142 257
e 143 216
e 145 196
e 145 227
e 145 253
e 145 254
e 147 195
e 148 168
e 148 239
e 149 172
e 149 192
e 149 218
e 150 198
e 150 200
e 152 160
e 152 172
e 154 165
e 154 222
e 155 156
e 155 164
e 156 164
e 156 204
e 156 262
e 156 266
e 158 167
e 158 203
e 159 169
e 160 229
e 160 230
e 161 207
e 162 173
e 167 203
e 168 239
e 170 182
e 176 205
e 177 180
e 178 179
e 178 236
e 179 236
e 183 242
e 189 263
e 189 264
e 190 209
e 190 245
e 191 259
e 192 218
e 193 210
e 193 223
e 194 225
e 194 226
e 196 253
e 196 254
e 197 235
e 198 200
e 199 267
e 199 268
e 204 262
e 204 266
e 225 226
e 229 230
e 240 241
e 243 244
e 249 250
e 253 254
e 256 257
e 263 264
e 267 268
